SAT
-10 -91 -172 -253 -334 -415 -496 -658 577 19 -100 -181 -262 -343 -424 -505 -586 -667 -1 -163 -244 -325 -406 -487 -568 -649 82 413 500 339 179 263 588 671 25 193 199 41 693 618 57 140 385 548 632 553 230 722 324 0